c description: There is a graph of 6 vertices with a 5-clique and a 7-coloring
c generator: CNFgen (0.9.0)
c copyright: (C) 2012-2020 Massimo Lauria <massimo.lauria@uniroma1.it>
c url: https://massimolauria.net/cnfgen
c
p cnf 87 677
-16 -17 0
-16 -18 0
-16 -19 0
-16 -20 0
-16 -21 0
-17 -18 0
-17 -19 0
-17 -20 0
-17 -21 0
-18 -19 0
-18 -20 0
-18 -21 0
-19 -20 0
-19 -21 0
-20 -21 0
16 17 18 19 20 21 0
-22 -23 0
-22 -24 0
-22 -25 0
-22 -26 0
-22 -27 0
-23 -24 0
-23 -25 0
-23 -26 0
-23 -27 0
-24 -25 0
-24 -26 0
-24 -27 0
-25 -26 0
-25 -27 0
-26 -27 0
22 23 24 25 26 27 0
-28 -29 0
-28 -30 0
-28 -31 0
-28 -32 0
-28 -33 0
-29 -30 0
-29 -31 0
-29 -32 0
-29 -33 0
-30 -31 0
-30 -32 0
-30 -33 0
-31 -32 0
-31 -33 0
-32 -33 0
28 29 30 31 32 33 0
-34 -35 0
-34 -36 0
-34 -37 0
-34 -38 0
-34 -39 0
-35 -36 0
-35 -37 0
-35 -38 0
-35 -39 0
-36 -37 0
-36 -38 0
-36 -39 0
-37 -38 0
-37 -39 0
-38 -39 0
34 35 36 37 38 39 0
-40 -41 0
-40 -42 0
-40 -43 0
-40 -44 0
-40 -45 0
-41 -42 0
-41 -43 0
-41 -44 0
-41 -45 0
-42 -43 0
-42 -44 0
-42 -45 0
-43 -44 0
-43 -45 0
-44 -45 0
40 41 42 43 44 45 0
-16 -22 0
-16 -28 0
-16 -34 0
-16 -40 0
-22 -28 0
-22 -34 0
-22 -40 0
-28 -34 0
-28 -40 0
-34 -40 0
-17 -23 0
-17 -29 0
-17 -35 0
-17 -41 0
-23 -29 0
-23 -35 0
-23 -41 0
-29 -35 0
-29 -41 0
-35 -41 0
-18 -24 0
-18 -30 0
-18 -36 0
-18 -42 0
-24 -30 0
-24 -36 0
-24 -42 0
-30 -36 0
-30 -42 0
-36 -42 0
-19 -25 0
-19 -31 0
-19 -37 0
-19 -43 0
-25 -31 0
-25 -37 0
-25 -43 0
-31 -37 0
-31 -43 0
-37 -43 0
-20 -26 0
-20 -32 0
-20 -38 0
-20 -44 0
-26 -32 0
-26 -38 0
-26 -44 0
-32 -38 0
-32 -44 0
-38 -44 0
-21 -27 0
-21 -33 0
-21 -39 0
-21 -45 0
-27 -33 0
-27 -39 0
-27 -45 0
-33 -39 0
-33 -45 0
-39 -45 0
1 -16 -23 0
1 -16 -29 0
1 -16 -35 0
1 -16 -41 0
1 -22 -17 0
1 -22 -29 0
1 -22 -35 0
1 -22 -41 0
1 -28 -17 0
1 -28 -23 0
1 -28 -35 0
1 -28 -41 0
1 -34 -17 0
1 -34 -23 0
1 -34 -29 0
1 -34 -41 0
1 -40 -17 0
1 -40 -23 0
1 -40 -29 0
1 -40 -35 0
2 -16 -24 0
2 -16 -30 0
2 -16 -36 0
2 -16 -42 0
2 -22 -18 0
2 -22 -30 0
2 -22 -36 0
2 -22 -42 0
2 -28 -18 0
2 -28 -24 0
2 -28 -36 0
2 -28 -42 0
2 -34 -18 0
2 -34 -24 0
2 -34 -30 0
2 -34 -42 0
2 -40 -18 0
2 -40 -24 0
2 -40 -30 0
2 -40 -36 0
3 -16 -25 0
3 -16 -31 0
3 -16 -37 0
3 -16 -43 0
3 -22 -19 0
3 -22 -31 0
3 -22 -37 0
3 -22 -43 0
3 -28 -19 0
3 -28 -25 0
3 -28 -37 0
3 -28 -43 0
3 -34 -19 0
3 -34 -25 0
3 -34 -31 0
3 -34 -43 0
3 -40 -19 0
3 -40 -25 0
3 -40 -31 0
3 -40 -37 0
4 -16 -26 0
4 -16 -32 0
4 -16 -38 0
4 -16 -44 0
4 -22 -20 0
4 -22 -32 0
4 -22 -38 0
4 -22 -44 0
4 -28 -20 0
4 -28 -26 0
4 -28 -38 0
4 -28 -44 0
4 -34 -20 0
4 -34 -26 0
4 -34 -32 0
4 -34 -44 0
4 -40 -20 0
4 -40 -26 0
4 -40 -32 0
4 -40 -38 0
5 -16 -27 0
5 -16 -33 0
5 -16 -39 0
5 -16 -45 0
5 -22 -21 0
5 -22 -33 0
5 -22 -39 0
5 -22 -45 0
5 -28 -21 0
5 -28 -27 0
5 -28 -39 0
5 -28 -45 0
5 -34 -21 0
5 -34 -27 0
5 -34 -33 0
5 -34 -45 0
5 -40 -21 0
5 -40 -27 0
5 -40 -33 0
5 -40 -39 0
6 -17 -24 0
6 -17 -30 0
6 -17 -36 0
6 -17 -42 0
6 -23 -18 0
6 -23 -30 0
6 -23 -36 0
6 -23 -42 0
6 -29 -18 0
6 -29 -24 0
6 -29 -36 0
6 -29 -42 0
6 -35 -18 0
6 -35 -24 0
6 -35 -30 0
6 -35 -42 0
6 -41 -18 0
6 -41 -24 0
6 -41 -30 0
6 -41 -36 0
7 -17 -25 0
7 -17 -31 0
7 -17 -37 0
7 -17 -43 0
7 -23 -19 0
7 -23 -31 0
7 -23 -37 0
7 -23 -43 0
7 -29 -19 0
7 -29 -25 0
7 -29 -37 0
7 -29 -43 0
7 -35 -19 0
7 -35 -25 0
7 -35 -31 0
7 -35 -43 0
7 -41 -19 0
7 -41 -25 0
7 -41 -31 0
7 -41 -37 0
8 -17 -26 0
8 -17 -32 0
8 -17 -38 0
8 -17 -44 0
8 -23 -20 0
8 -23 -32 0
8 -23 -38 0
8 -23 -44 0
8 -29 -20 0
8 -29 -26 0
8 -29 -38 0
8 -29 -44 0
8 -35 -20 0
8 -35 -26 0
8 -35 -32 0
8 -35 -44 0
8 -41 -20 0
8 -41 -26 0
8 -41 -32 0
8 -41 -38 0
9 -17 -27 0
9 -17 -33 0
9 -17 -39 0
9 -17 -45 0
9 -23 -21 0
9 -23 -33 0
9 -23 -39 0
9 -23 -45 0
9 -29 -21 0
9 -29 -27 0
9 -29 -39 0
9 -29 -45 0
9 -35 -21 0
9 -35 -27 0
9 -35 -33 0
9 -35 -45 0
9 -41 -21 0
9 -41 -27 0
9 -41 -33 0
9 -41 -39 0
10 -18 -25 0
10 -18 -31 0
10 -18 -37 0
10 -18 -43 0
10 -24 -19 0
10 -24 -31 0
10 -24 -37 0
10 -24 -43 0
10 -30 -19 0
10 -30 -25 0
10 -30 -37 0
10 -30 -43 0
10 -36 -19 0
10 -36 -25 0
10 -36 -31 0
10 -36 -43 0
10 -42 -19 0
10 -42 -25 0
10 -42 -31 0
10 -42 -37 0
11 -18 -26 0
11 -18 -32 0
11 -18 -38 0
11 -18 -44 0
11 -24 -20 0
11 -24 -32 0
11 -24 -38 0
11 -24 -44 0
11 -30 -20 0
11 -30 -26 0
11 -30 -38 0
11 -30 -44 0
11 -36 -20 0
11 -36 -26 0
11 -36 -32 0
11 -36 -44 0
11 -42 -20 0
11 -42 -26 0
11 -42 -32 0
11 -42 -38 0
12 -18 -27 0
12 -18 -33 0
12 -18 -39 0
12 -18 -45 0
12 -24 -21 0
12 -24 -33 0
12 -24 -39 0
12 -24 -45 0
12 -30 -21 0
12 -30 -27 0
12 -30 -39 0
12 -30 -45 0
12 -36 -21 0
12 -36 -27 0
12 -36 -33 0
12 -36 -45 0
12 -42 -21 0
12 -42 -27 0
12 -42 -33 0
12 -42 -39 0
13 -19 -26 0
13 -19 -32 0
13 -19 -38 0
13 -19 -44 0
13 -25 -20 0
13 -25 -32 0
13 -25 -38 0
13 -25 -44 0
13 -31 -20 0
13 -31 -26 0
13 -31 -38 0
13 -31 -44 0
13 -37 -20 0
13 -37 -26 0
13 -37 -32 0
13 -37 -44 0
13 -43 -20 0
13 -43 -26 0
13 -43 -32 0
13 -43 -38 0
14 -19 -27 0
14 -19 -33 0
14 -19 -39 0
14 -19 -45 0
14 -25 -21 0
14 -25 -33 0
14 -25 -39 0
14 -25 -45 0
14 -31 -21 0
14 -31 -27 0
14 -31 -39 0
14 -31 -45 0
14 -37 -21 0
14 -37 -27 0
14 -37 -33 0
14 -37 -45 0
14 -43 -21 0
14 -43 -27 0
14 -43 -33 0
14 -43 -39 0
15 -20 -27 0
15 -20 -33 0
15 -20 -39 0
15 -20 -45 0
15 -26 -21 0
15 -26 -33 0
15 -26 -39 0
15 -26 -45 0
15 -32 -21 0
15 -32 -27 0
15 -32 -39 0
15 -32 -45 0
15 -38 -21 0
15 -38 -27 0
15 -38 -33 0
15 -38 -45 0
15 -44 -21 0
15 -44 -27 0
15 -44 -33 0
15 -44 -39 0
-46 -47 0
-46 -48 0
-46 -49 0
-46 -50 0
-46 -51 0
-46 -52 0
-47 -48 0
-47 -49 0
-47 -50 0
-47 -51 0
-47 -52 0
-48 -49 0
-48 -50 0
-48 -51 0
-48 -52 0
-49 -50 0
-49 -51 0
-49 -52 0
-50 -51 0
-50 -52 0
-51 -52 0
46 47 48 49 50 51 52 0
-53 -54 0
-53 -55 0
-53 -56 0
-53 -57 0
-53 -58 0
-53 -59 0
-54 -55 0
-54 -56 0
-54 -57 0
-54 -58 0
-54 -59 0
-55 -56 0
-55 -57 0
-55 -58 0
-55 -59 0
-56 -57 0
-56 -58 0
-56 -59 0
-57 -58 0
-57 -59 0
-58 -59 0
53 54 55 56 57 58 59 0
-60 -61 0
-60 -62 0
-60 -63 0
-60 -64 0
-60 -65 0
-60 -66 0
-61 -62 0
-61 -63 0
-61 -64 0
-61 -65 0
-61 -66 0
-62 -63 0
-62 -64 0
-62 -65 0
-62 -66 0
-63 -64 0
-63 -65 0
-63 -66 0
-64 -65 0
-64 -66 0
-65 -66 0
60 61 62 63 64 65 66 0
-67 -68 0
-67 -69 0
-67 -70 0
-67 -71 0
-67 -72 0
-67 -73 0
-68 -69 0
-68 -70 0
-68 -71 0
-68 -72 0
-68 -73 0
-69 -70 0
-69 -71 0
-69 -72 0
-69 -73 0
-70 -71 0
-70 -72 0
-70 -73 0
-71 -72 0
-71 -73 0
-72 -73 0
67 68 69 70 71 72 73 0
-74 -75 0
-74 -76 0
-74 -77 0
-74 -78 0
-74 -79 0
-74 -80 0
-75 -76 0
-75 -77 0
-75 -78 0
-75 -79 0
-75 -80 0
-76 -77 0
-76 -78 0
-76 -79 0
-76 -80 0
-77 -78 0
-77 -79 0
-77 -80 0
-78 -79 0
-78 -80 0
-79 -80 0
74 75 76 77 78 79 80 0
-81 -82 0
-81 -83 0
-81 -84 0
-81 -85 0
-81 -86 0
-81 -87 0
-82 -83 0
-82 -84 0
-82 -85 0
-82 -86 0
-82 -87 0
-83 -84 0
-83 -85 0
-83 -86 0
-83 -87 0
-84 -85 0
-84 -86 0
-84 -87 0
-85 -86 0
-85 -87 0
-86 -87 0
81 82 83 84 85 86 87 0
-1 -46 -53 0
-1 -47 -54 0
-1 -48 -55 0
-1 -49 -56 0
-1 -50 -57 0
-1 -51 -58 0
-1 -52 -59 0
-2 -46 -60 0
-2 -47 -61 0
-2 -48 -62 0
-2 -49 -63 0
-2 -50 -64 0
-2 -51 -65 0
-2 -52 -66 0
-3 -46 -67 0
-3 -47 -68 0
-3 -48 -69 0
-3 -49 -70 0
-3 -50 -71 0
-3 -51 -72 0
-3 -52 -73 0
-4 -46 -74 0
-4 -47 -75 0
-4 -48 -76 0
-4 -49 -77 0
-4 -50 -78 0
-4 -51 -79 0
-4 -52 -80 0
-5 -46 -81 0
-5 -47 -82 0
-5 -48 -83 0
-5 -49 -84 0
-5 -50 -85 0
-5 -51 -86 0
-5 -52 -87 0
-6 -53 -60 0
-6 -54 -61 0
-6 -55 -62 0
-6 -56 -63 0
-6 -57 -64 0
-6 -58 -65 0
-6 -59 -66 0
-7 -53 -67 0
-7 -54 -68 0
-7 -55 -69 0
-7 -56 -70 0
-7 -57 -71 0
-7 -58 -72 0
-7 -59 -73 0
-8 -53 -74 0
-8 -54 -75 0
-8 -55 -76 0
-8 -56 -77 0
-8 -57 -78 0
-8 -58 -79 0
-8 -59 -80 0
-9 -53 -81 0
-9 -54 -82 0
-9 -55 -83 0
-9 -56 -84 0
-9 -57 -85 0
-9 -58 -86 0
-9 -59 -87 0
-10 -60 -67 0
-10 -61 -68 0
-10 -62 -69 0
-10 -63 -70 0
-10 -64 -71 0
-10 -65 -72 0
-10 -66 -73 0
-11 -60 -74 0
-11 -61 -75 0
-11 -62 -76 0
-11 -63 -77 0
-11 -64 -78 0
-11 -65 -79 0
-11 -66 -80 0
-12 -60 -81 0
-12 -61 -82 0
-12 -62 -83 0
-12 -63 -84 0
-12 -64 -85 0
-12 -65 -86 0
-12 -66 -87 0
-13 -67 -74 0
-13 -68 -75 0
-13 -69 -76 0
-13 -70 -77 0
-13 -71 -78 0
-13 -72 -79 0
-13 -73 -80 0
-14 -67 -81 0
-14 -68 -82 0
-14 -69 -83 0
-14 -70 -84 0
-14 -71 -85 0
-14 -72 -86 0
-14 -73 -87 0
-15 -74 -81 0
-15 -75 -82 0
-15 -76 -83 0
-15 -77 -84 0
-15 -78 -85 0
-15 -79 -86 0
-15 -80 -87 0